% Auto-generated by scripts/generate_dzn.py
% problem_type   = regex
% instance       = regex_32
% source_json    = instances_json/1_medium_blowup/regex_32.json
% blowup         = 5.105263157894737
% representation = NFA

mode = 1;

var_count = 19;
n_constraints = 2;
Q = 10;
S = 2;
q0 = [1, 1];
F = [{9}, {10}];
weights = [5, 6, 10, 7, 10, 2, 9, 2, 6, 3, 8, 9, 10, 4, 6, 8, 1, 2, 2];
d_dfa = array3d(1..2, 1..10, 1..2, [
  % k = 1
    0, 0,
    0, 0,
    0, 0,
    0, 0,
    0, 0,
    0, 0,
    0, 0,
    0, 0,
    0, 0,
    0, 0,

  % k = 2
    0, 0,
    0, 0,
    0, 0,
    0, 0,
    0, 0,
    0, 0,
    0, 0,
    0, 0,
    0, 0,
    0, 0
]);
d_nfa = array3d(1..2, 1..10, 1..2, [
  % k = 1
    {1, 2}, {1},
    {3}, {},
    {4}, {4},
    {5}, {5},
    {6}, {6},
    {7}, {7},
    {8}, {8},
    {9}, {9},
    {}, {},
    {}, {},

  % k = 2
    {1}, {2},
    {2}, {3},
    {3}, {4},
    {4}, {5},
    {5}, {6},
    {6}, {7},
    {7}, {8},
    {8}, {9},
    {9}, {10},
    {10}, {}
]);
